75
[7,8,9,10,11,12,13,14,15,16,17,18,19,20,21,22,23,24,25,26,27,28,29,30,31,32,33,34,35,36,37,38,39,40,41,42,43,44,45,46,47,48,49,50,51,52,53,54,55,56,57,58,59,60]
[15,12,24,13,13,9,10,14,11,14,15,16,19,12,8,14,9,15,9,8,13,15,17,13,9,16,24,15,12,13,13,15,21,19,12,11,20,15,10,14,14,10,16,9,12,7,6,16,17,23,21,13,18,11]
